33
75
60	2
59	2
57	2
56	1
53	1
51	2
50	1
47	2
44	1
41	4
38	2
36	1
33	1
32	2
31	1
28	1
26	2
25	1
24	1
23	1
22	2
21	1
20	2
19	1
18	1
17	1
14	1
12	2
11	1
10	3
9	2
8	1
7	1
